87 61 40 59 34 33 96 66 
73 15 86 
41 55 42 8 94 14 48 24 
44 85 51 83 9 45 75 80 36 74 50 54 91 
84 7 17 
30 67 100 29 4 
11 
21 76 88 20 43 
72 28 1 25 
95 19 2 38 69 62 52 60 78 97 46 
92 5 47 
16 31 27 79 12 53 37 90 81 32 6 10 3 77 35 
98 71 39 23 22 18 63 82 49 64 70 65 89 99 93 57 13 58 26 68 56 

